c INSTANCE 1
p edge 6 10
e 1 2
e 1 5
e 1 6
e 2 5
e 2 6
e 3 4
e 3 5
e 4 5
e 4 6
e 5 6

c INSTANCE 2
p edge 6 8
e 1 3
e 1 6
e 2 4
e 2 5
e 3 4
e 3 5
e 3 6
e 4 5

c INSTANCE 3
p edge 6 8
e 1 2
e 1 3
e 1 5
e 2 4
e 2 6
e 3 4
e 3 6
e 4 6
